 181  
 
 Ar  13.2  20.49  25.88  
 O  10.47  21.51  26.68  
 O  12.68  22.7  23.52  
 O  16.59  21.17  26.06  
 O  15.63  19.51  23.54  
 O  13.37  20.5  22.22  
 O  16.05  19.34  27.89  
 O  9.66  19.68  24.96  
 O  14.24  23.78  28.0  
 O  10.87  19.87  21.89  
 O  16.16  24.28  26.28  
 O  14.51  24.73  23.79  
 O  11.98  21.24  30.66  
 O  17.6  17.82  26.39  
 O  9.26  22.02  29.24  
 O  9.03  21.92  22.71  
 O  9.46  24.3  27.32  
 O  17.66  20.88  22.44  
 O  11.79  16.18  29.3  
 O  17.71  20.9  29.31  
 O  10.94  24.88  23.06  
 O  14.22  16.92  21.47  
 O  15.27  19.5  20.44  
 O  16.16  15.32  25.85  
 O  15.56  23.92  30.22  
 O  12.77  22.85  20.27  
 O  16.93  16.35  23.31  
 O  12.1  24.1  30.77  
 O  11.32  18.08  31.31  
 O  18.09  23.76  23.64  
 O  18.41  23.53  28.12  
 O  19.46  22.1  26.13  
 O  16.15  21.56  31.56  
 O  7.23  17.69  25.03  
 O  6.75  20.35  24.09  
 O  19.04  18.69  22.92  
 O  9.85  22.41  20.24  
 O  14.21  15.21  30.11  
 O  13.43  25.52  20.95  
 O  9.82  17.44  20.45  
 O  20.07  19.63  27.43  
 O  17.05  17.58  20.64  
 O  10.42  25.98  29.48  
 O  15.84  27.34  25.71  
 O  18.69  16.07  28.0  
 O  17.38  21.06  19.83  
 O  18.51  17.63  30.16  
 O  13.92  20.63  33.304  
 O  6.8  23.92  24.13  
 O  10.8  27.5  24.88  
 O  15.87  26.32  22.0  
 O  9.64  20.79  32.47  
 O  6.8  24.43  27.04  
 O  15.31  22.36  18.78  
 O  8.74  24.25  30.83  
 O  10.63  25.14  20.32  
 O  7.84  15.06  24.17  
 O  19.98  16.59  25.15  
 O  12.13  27.45  22.36  
 O  16.07  27.44  28.29  
 O  12.85  14.5  20.69  
 H  10.32  21.61  27.62  
 H  10.52  22.4  26.35  
 H  13.42  23.31  23.53  
 H  13.05  21.87  23.23  
 H  16.19  20.61  26.72  
 H  16.54  20.66  25.25  
 H  15.7  18.68  23.08  
 H  14.75  19.83  23.33  
 H  12.53  20.04  22.22  
 H  13.87  20.11  21.51  
 H  15.92  18.76  28.63  
 H  16.53  18.82  27.24  
 H  9.89  20.42  25.52  
 H  10.36  19.04  25.09  
 H  13.67  24.43  27.57  
 H  15.13  24.06  27.78  
 H  10.28  20.27  22.53  
 H  10.71  20.36  21.08  
 H  15.88  23.38  26.41  
 H  17.09  24.28  26.54  
 H  15.1  25.32  23.32  
 H  14.73  24.85  24.71  
 H  11.38  21.4  29.93  
 H  12.25  22.11  30.95  
 H  18.32  17.68  25.77  
 H  17.87  17.35  27.18  
 H  9.29  21.34  29.91  
 H  9.06  22.82  29.72  
 H  9.17  22.67  23.29  
 H  9.41  22.19  21.87  
 H  8.56  24.57  27.13  
 H  9.36  23.57  27.93  
 H  16.91  20.57  22.95  
 H  18.23  20.12  22.35  
 H  11.12  15.51  29.42  
 H  12.62  15.73  29.48  
 H  17.2  20.94  30.12  
 H  17.22  20.31  28.74  
 H  10.84  24.88  22.11  
 H  11.6  24.2  23.23  
 H  15.1  16.57  21.57  
 H  14.3  17.63  20.83  
 H  15.07  19.24  19.54  
 H  16.0  18.93  20.71  
 H  16.71  15.74  26.5  
 H  16.62  14.52  25.62  
 H  15.6  24.87  30.24  
 H  14.85  23.72  29.61  
 H  13.0  22.34  21.04  
 H  12.9  23.76  20.53  
 H  16.6  16.52  24.19  
 H  17.61  15.69  23.43  
 H  12.75  24.58  31.28  
 H  11.48  24.77  30.48  
 H  11.87  18.79  30.96  
 H  11.41  17.37  30.68  
 H  18.04  22.88  23.27  
 H  18.27  24.33  22.89  
 H  19.3  23.39  27.79  
 H  18.18  22.69  28.52  
 H  18.59  21.73  26.27  
 H  19.36  22.7  25.39  
 H  15.87  22.4  31.2  
 H  15.44  21.31  32.16  
 H  6.39  18.13  25.15  
 H  7.85  18.22  25.53  
 H  7.59  19.9  24.15  
 H  6.98  21.25  23.84  
 H  18.51  17.92  23.12  
 H  19.93  18.35  22.83  
 H  10.45  23.14  20.41  
 H  9.26  22.75  19.56  
 H  14.96  15.13  30.69  
 H  14.5  14.83  29.28  
 H  13.05  26.34  21.27  
 H  14.16  25.35  21.55  
 H  9.76  18.12  21.12  
 H  9.18  16.78  20.72  
 H  19.71  20.49  27.18  
 H  20.31  19.73  28.35  
 H  17.56  16.99  21.2  
 H  17.58  17.69  19.86  
 H  10.07  25.45  28.77  
 H  10.79  26.75  29.04  
 H  16.26  26.69  25.16  
 H  15.84  26.96  26.59  
 H  18.81  16.59  28.79  
 H  19.46  16.27  27.46  
 H  16.63  20.48  19.98  
 H  17.75  21.2  20.7  
 H  18.81  18.46  30.53  
 H  17.84  17.33  30.77  
 H  13.84  19.73  32.964  
 H  13.92  20.53  34.254  
 H  7.2  24.67  23.68  
 H  5.96  23.8  23.68  
 H  11.14  26.66  24.57  
 H  9.85  27.38  24.9  
 H  16.74  25.93  22.14  
 H  15.94  27.2  22.38  
 H  9.61  21.65  32.9  
 H  10.55  20.69  32.21  
 H  6.92  24.41  26.09  
 H  6.27  25.22  27.19  
 H  14.69  22.34  19.5  
 H  16.11  21.96  19.13  
 H  8.03  24.88  30.64  
 H  9.54  24.72  30.61  
 H  9.87  25.67  20.07  
 H  11.34  25.48  19.77  
 H  7.91  15.3  23.25  
 H  7.5  15.84  24.6  
 H  20.65  17.24  25.39  
 H  20.33  16.15  24.38  
 H  12.04  28.23  21.81  
 H  11.25  27.08  22.39  
 H  15.56  27.25  29.08  
 H  16.41  28.32  28.43  
 H  13.75  14.27  20.44  
 H  12.92  15.41  20.98  
